p cnf 585 1987
c p weight 234 -1 0
c p weight -234 1 0
c p weight 236 6.12323399573676603586882014729198302312846062338790031898128063403419218957424163818359375E-17 0
c p weight -236 1 0
c p weight 237 1 0
c p weight -237 1 0
c p weight 238 -1 0
c p weight -238 1 0
c p weight 240 -1 0
c p weight -240 1 0
c p weight 243 -1 0
c p weight -243 1 0
c p weight 246 -1 0
c p weight -246 1 0
c p weight 249 -1 0
c p weight -249 1 0
c p weight 252 -1 0
c p weight -252 1 0
c p weight 255 -1 0
c p weight -255 1 0
c p weight 258 -1 0
c p weight -258 1 0
c p weight 261 -1 0
c p weight -261 1 0
c p weight 264 -1 0
c p weight -264 1 0
c p weight 267 -1 0
c p weight -267 1 0
c p weight 270 -1 0
c p weight -270 1 0
c p weight 273 -1 0
c p weight -273 1 0
c p weight 276 -1 0
c p weight -276 1 0
c p weight 279 -1 0
c p weight -279 1 0
c p weight 282 -1 0
c p weight -282 1 0
c p weight 285 -1 0
c p weight -285 1 0
c p weight 288 -1 0
c p weight -288 1 0
c p weight 291 -1 0
c p weight -291 1 0
c p weight 294 -1 0
c p weight -294 1 0
c p weight 297 -1 0
c p weight -297 1 0
c p weight 300 -1 0
c p weight -300 1 0
c p weight 303 -1 0
c p weight -303 1 0
c p weight 306 -1 0
c p weight -306 1 0
c p weight 309 -1 0
c p weight -309 1 0
c p weight 312 -1 0
c p weight -312 1 0
c p weight 315 -1 0
c p weight -315 1 0
c p weight 318 -1 0
c p weight -318 1 0
c p weight 321 -1 0
c p weight -321 1 0
c p weight 324 -1 0
c p weight -324 1 0
c p weight 327 -1 0
c p weight -327 1 0
c p weight 330 -1 0
c p weight -330 1 0
c p weight 333 -1 0
c p weight -333 1 0
c p weight 336 -1 0
c p weight -336 1 0
c p weight 339 -1 0
c p weight -339 1 0
c p weight 342 -1 0
c p weight -342 1 0
c p weight 345 -1 0
c p weight -345 1 0
c p weight 348 -1 0
c p weight -348 1 0
c p weight 351 -1 0
c p weight -351 1 0
c p weight 354 -1 0
c p weight -354 1 0
c p weight 357 -1 0
c p weight -357 1 0
c p weight 360 -1 0
c p weight -360 1 0
c p weight 363 -1 0
c p weight -363 1 0
c p weight 366 -1 0
c p weight -366 1 0
c p weight 369 -1 0
c p weight -369 1 0
c p weight 372 -1 0
c p weight -372 1 0
c p weight 375 -1 0
c p weight -375 1 0
c p weight 378 -1 0
c p weight -378 1 0
c p weight 381 -1 0
c p weight -381 1 0
c p weight 384 -1 0
c p weight -384 1 0
c p weight 387 -1 0
c p weight -387 1 0
c p weight 390 -1 0
c p weight -390 1 0
c p weight 393 -1 0
c p weight -393 1 0
c p weight 396 -1 0
c p weight -396 1 0
c p weight 399 -1 0
c p weight -399 1 0
c p weight 402 -1 0
c p weight -402 1 0
c p weight 405 -1 0
c p weight -405 1 0
c p weight 408 -1 0
c p weight -408 1 0
c p weight 411 -1 0
c p weight -411 1 0
c p weight 414 -1 0
c p weight -414 1 0
c p weight 417 -1 0
c p weight -417 1 0
c p weight 420 -1 0
c p weight -420 1 0
c p weight 423 -1 0
c p weight -423 1 0
c p weight 426 -1 0
c p weight -426 1 0
c p weight 429 -1 0
c p weight -429 1 0
c p weight 432 -1 0
c p weight -432 1 0
c p weight 435 -1 0
c p weight -435 1 0
c p weight 438 -1 0
c p weight -438 1 0
c p weight 441 -1 0
c p weight -441 1 0
c p weight 444 -1 0
c p weight -444 1 0
c p weight 447 -1 0
c p weight -447 1 0
c p weight 450 -1 0
c p weight -450 1 0
c p weight 453 -1 0
c p weight -453 1 0
c p weight 456 -1 0
c p weight -456 1 0
c p weight 459 -1 0
c p weight -459 1 0
c p weight 462 -1 0
c p weight -462 1 0
c p weight 465 -1 0
c p weight -465 1 0
c p weight 468 -1 0
c p weight -468 1 0
c p weight 471 -1 0
c p weight -471 1 0
c p weight 474 -1 0
c p weight -474 1 0
c p weight 477 -1 0
c p weight -477 1 0
c p weight 480 -1 0
c p weight -480 1 0
c p weight 483 -1 0
c p weight -483 1 0
c p weight 486 -1 0
c p weight -486 1 0
c p weight 489 -1 0
c p weight -489 1 0
c p weight 492 -1 0
c p weight -492 1 0
c p weight 495 -1 0
c p weight -495 1 0
c p weight 498 -1 0
c p weight -498 1 0
c p weight 501 -1 0
c p weight -501 1 0
c p weight 504 -1 0
c p weight -504 1 0
c p weight 507 -1 0
c p weight -507 1 0
c p weight 510 -1 0
c p weight -510 1 0
c p weight 513 -1 0
c p weight -513 1 0
c p weight 516 -1 0
c p weight -516 1 0
c p weight 519 -1 0
c p weight -519 1 0
c p weight 522 -1 0
c p weight -522 1 0
c p weight 525 -1 0
c p weight -525 1 0
c p weight 528 -1 0
c p weight -528 1 0
c p weight 531 -1 0
c p weight -531 1 0
c p weight 534 -1 0
c p weight -534 1 0
c p weight 537 -1 0
c p weight -537 1 0
c p weight 540 -1 0
c p weight -540 1 0
c p weight 543 -1 0
c p weight -543 1 0
c p weight 546 -1 0
c p weight -546 1 0
c p weight 549 -1 0
c p weight -549 1 0
c p weight 552 -1 0
c p weight -552 1 0
c p weight 555 -1 0
c p weight -555 1 0
c p weight 558 -1 0
c p weight -558 1 0
c p weight 561 -1 0
c p weight -561 1 0
c p weight 564 -1 0
c p weight -564 1 0
c p weight 567 -1 0
c p weight -567 1 0
c p weight 570 -1 0
c p weight -570 1 0
c p weight 573 -1 0
c p weight -573 1 0
c p weight 576 -1 0
c p weight -576 1 0
c p weight 579 -1 0
c p weight -579 1 0
c p weight 582 -1 0
c p weight -582 1 0
c p weight 585 -1 0
c p weight -585 1 0
-231 0
-229 0
-227 0
-225 0
-223 0
-221 0
-219 0
-217 0
-215 0
-213 0
-211 0
-209 0
-207 0
-205 0
-203 0
-201 0
-199 0
-197 0
-195 0
-193 0
-191 0
-189 0
-187 0
-185 0
-183 0
-181 0
-179 0
-177 0
-175 0
-173 0
-171 0
-169 0
-167 0
-165 0
-163 0
-161 0
-159 0
-157 0
-155 0
-153 0
-151 0
-149 0
-147 0
-145 0
-143 0
-141 0
-139 0
-137 0
-135 0
-133 0
-131 0
-129 0
-127 0
-125 0
-123 0
-121 0
-119 0
-117 0
-115 0
-113 0
-111 0
-109 0
-107 0
-105 0
-103 0
-101 0
-99 0
-97 0
-95 0
-93 0
-91 0
-89 0
-87 0
-85 0
-83 0
-81 0
-79 0
-77 0
-75 0
-73 0
-71 0
-69 0
-67 0
-65 0
-63 0
-61 0
-59 0
-57 0
-55 0
-53 0
-51 0
-49 0
-47 0
-45 0
-43 0
-41 0
-39 0
-37 0
-35 0
-33 0
-31 0
-29 0
-27 0
-25 0
-23 0
-21 0
-19 0
-17 0
-15 0
-13 0
-11 0
-9 0
-7 0
-5 0
-3 0
-1 0
233 231 -232 0
233 -231 232 0
-233 231 232 0
-233 -231 -232 0
-234 231 0
-234 232 0
234 -231 -232 0
235 -231 233 0
-235 231 233 0
-236 233 0
235 -236 -231 0
-235 -236 231 0
235 236 231 -233 0
-235 236 -231 -233 0
-237 233 0
235 -237 231 0
-235 -237 -231 0
235 237 -231 -233 0
-235 237 231 -233 0
-238 235 0
-238 233 0
-238 -231 0
238 -235 231 -233 0
239 235 -233 0
239 -235 233 0
-239 235 233 0
-239 -235 -233 0
-240 235 0
-240 233 0
240 -235 -233 0
241 235 -229 0
241 -235 229 0
-241 235 229 0
-241 -235 -229 0
242 239 -230 0
242 -239 230 0
-242 239 230 0
-242 -239 -230 0
-243 235 0
-243 230 0
-243 229 -239 0
-243 -229 239 0
243 -235 229 239 -230 0
243 -235 -229 -239 -230 0
244 241 -227 0
244 -241 227 0
-244 241 227 0
-244 -241 -227 0
245 230 -228 0
245 -230 228 0
-245 230 228 0
-245 -230 -228 0
-246 241 0
-246 228 0
-246 227 -230 0
-246 -227 230 0
246 -241 227 230 -228 0
246 -241 -227 -230 -228 0
247 244 -225 0
247 -244 225 0
-247 244 225 0
-247 -244 -225 0
248 228 -226 0
248 -228 226 0
-248 228 226 0
-248 -228 -226 0
-249 244 0
-249 226 0
-249 225 -228 0
-249 -225 228 0
249 -244 225 228 -226 0
249 -244 -225 -228 -226 0
250 247 -223 0
250 -247 223 0
-250 247 223 0
-250 -247 -223 0
251 226 -224 0
251 -226 224 0
-251 226 224 0
-251 -226 -224 0
-252 247 0
-252 224 0
-252 223 -226 0
-252 -223 226 0
252 -247 223 226 -224 0
252 -247 -223 -226 -224 0
253 250 -221 0
253 -250 221 0
-253 250 221 0
-253 -250 -221 0
254 224 -222 0
254 -224 222 0
-254 224 222 0
-254 -224 -222 0
-255 250 0
-255 222 0
-255 221 -224 0
-255 -221 224 0
255 -250 221 224 -222 0
255 -250 -221 -224 -222 0
256 253 -219 0
256 -253 219 0
-256 253 219 0
-256 -253 -219 0
257 222 -220 0
257 -222 220 0
-257 222 220 0
-257 -222 -220 0
-258 253 0
-258 220 0
-258 219 -222 0
-258 -219 222 0
258 -253 219 222 -220 0
258 -253 -219 -222 -220 0
259 256 -217 0
259 -256 217 0
-259 256 217 0
-259 -256 -217 0
260 220 -218 0
260 -220 218 0
-260 220 218 0
-260 -220 -218 0
-261 256 0
-261 218 0
-261 217 -220 0
-261 -217 220 0
261 -256 217 220 -218 0
261 -256 -217 -220 -218 0
262 259 -215 0
262 -259 215 0
-262 259 215 0
-262 -259 -215 0
263 218 -216 0
263 -218 216 0
-263 218 216 0
-263 -218 -216 0
-264 259 0
-264 216 0
-264 215 -218 0
-264 -215 218 0
264 -259 215 218 -216 0
264 -259 -215 -218 -216 0
265 262 -213 0
265 -262 213 0
-265 262 213 0
-265 -262 -213 0
266 216 -214 0
266 -216 214 0
-266 216 214 0
-266 -216 -214 0
-267 262 0
-267 214 0
-267 213 -216 0
-267 -213 216 0
267 -262 213 216 -214 0
267 -262 -213 -216 -214 0
268 265 -211 0
268 -265 211 0
-268 265 211 0
-268 -265 -211 0
269 214 -212 0
269 -214 212 0
-269 214 212 0
-269 -214 -212 0
-270 265 0
-270 212 0
-270 211 -214 0
-270 -211 214 0
270 -265 211 214 -212 0
270 -265 -211 -214 -212 0
271 268 -209 0
271 -268 209 0
-271 268 209 0
-271 -268 -209 0
272 212 -210 0
272 -212 210 0
-272 212 210 0
-272 -212 -210 0
-273 268 0
-273 210 0
-273 209 -212 0
-273 -209 212 0
273 -268 209 212 -210 0
273 -268 -209 -212 -210 0
274 271 -207 0
274 -271 207 0
-274 271 207 0
-274 -271 -207 0
275 210 -208 0
275 -210 208 0
-275 210 208 0
-275 -210 -208 0
-276 271 0
-276 208 0
-276 207 -210 0
-276 -207 210 0
276 -271 207 210 -208 0
276 -271 -207 -210 -208 0
277 274 -205 0
277 -274 205 0
-277 274 205 0
-277 -274 -205 0
278 208 -206 0
278 -208 206 0
-278 208 206 0
-278 -208 -206 0
-279 274 0
-279 206 0
-279 205 -208 0
-279 -205 208 0
279 -274 205 208 -206 0
279 -274 -205 -208 -206 0
280 277 -203 0
280 -277 203 0
-280 277 203 0
-280 -277 -203 0
281 206 -204 0
281 -206 204 0
-281 206 204 0
-281 -206 -204 0
-282 277 0
-282 204 0
-282 203 -206 0
-282 -203 206 0
282 -277 203 206 -204 0
282 -277 -203 -206 -204 0
283 280 -201 0
283 -280 201 0
-283 280 201 0
-283 -280 -201 0
284 204 -202 0
284 -204 202 0
-284 204 202 0
-284 -204 -202 0
-285 280 0
-285 202 0
-285 201 -204 0
-285 -201 204 0
285 -280 201 204 -202 0
285 -280 -201 -204 -202 0
286 283 -199 0
286 -283 199 0
-286 283 199 0
-286 -283 -199 0
287 202 -200 0
287 -202 200 0
-287 202 200 0
-287 -202 -200 0
-288 283 0
-288 200 0
-288 199 -202 0
-288 -199 202 0
288 -283 199 202 -200 0
288 -283 -199 -202 -200 0
289 286 -197 0
289 -286 197 0
-289 286 197 0
-289 -286 -197 0
290 200 -198 0
290 -200 198 0
-290 200 198 0
-290 -200 -198 0
-291 286 0
-291 198 0
-291 197 -200 0
-291 -197 200 0
291 -286 197 200 -198 0
291 -286 -197 -200 -198 0
292 289 -195 0
292 -289 195 0
-292 289 195 0
-292 -289 -195 0
293 198 -196 0
293 -198 196 0
-293 198 196 0
-293 -198 -196 0
-294 289 0
-294 196 0
-294 195 -198 0
-294 -195 198 0
294 -289 195 198 -196 0
294 -289 -195 -198 -196 0
295 292 -193 0
295 -292 193 0
-295 292 193 0
-295 -292 -193 0
296 196 -194 0
296 -196 194 0
-296 196 194 0
-296 -196 -194 0
-297 292 0
-297 194 0
-297 193 -196 0
-297 -193 196 0
297 -292 193 196 -194 0
297 -292 -193 -196 -194 0
298 295 -191 0
298 -295 191 0
-298 295 191 0
-298 -295 -191 0
299 194 -192 0
299 -194 192 0
-299 194 192 0
-299 -194 -192 0
-300 295 0
-300 192 0
-300 191 -194 0
-300 -191 194 0
300 -295 191 194 -192 0
300 -295 -191 -194 -192 0
301 298 -189 0
301 -298 189 0
-301 298 189 0
-301 -298 -189 0
302 192 -190 0
302 -192 190 0
-302 192 190 0
-302 -192 -190 0
-303 298 0
-303 190 0
-303 189 -192 0
-303 -189 192 0
303 -298 189 192 -190 0
303 -298 -189 -192 -190 0
304 301 -187 0
304 -301 187 0
-304 301 187 0
-304 -301 -187 0
305 190 -188 0
305 -190 188 0
-305 190 188 0
-305 -190 -188 0
-306 301 0
-306 188 0
-306 187 -190 0
-306 -187 190 0
306 -301 187 190 -188 0
306 -301 -187 -190 -188 0
307 304 -185 0
307 -304 185 0
-307 304 185 0
-307 -304 -185 0
308 188 -186 0
308 -188 186 0
-308 188 186 0
-308 -188 -186 0
-309 304 0
-309 186 0
-309 185 -188 0
-309 -185 188 0
309 -304 185 188 -186 0
309 -304 -185 -188 -186 0
310 307 -183 0
310 -307 183 0
-310 307 183 0
-310 -307 -183 0
311 186 -184 0
311 -186 184 0
-311 186 184 0
-311 -186 -184 0
-312 307 0
-312 184 0
-312 183 -186 0
-312 -183 186 0
312 -307 183 186 -184 0
312 -307 -183 -186 -184 0
313 310 -181 0
313 -310 181 0
-313 310 181 0
-313 -310 -181 0
314 184 -182 0
314 -184 182 0
-314 184 182 0
-314 -184 -182 0
-315 310 0
-315 182 0
-315 181 -184 0
-315 -181 184 0
315 -310 181 184 -182 0
315 -310 -181 -184 -182 0
316 313 -179 0
316 -313 179 0
-316 313 179 0
-316 -313 -179 0
317 182 -180 0
317 -182 180 0
-317 182 180 0
-317 -182 -180 0
-318 313 0
-318 180 0
-318 179 -182 0
-318 -179 182 0
318 -313 179 182 -180 0
318 -313 -179 -182 -180 0
319 316 -177 0
319 -316 177 0
-319 316 177 0
-319 -316 -177 0
320 180 -178 0
320 -180 178 0
-320 180 178 0
-320 -180 -178 0
-321 316 0
-321 178 0
-321 177 -180 0
-321 -177 180 0
321 -316 177 180 -178 0
321 -316 -177 -180 -178 0
322 319 -175 0
322 -319 175 0
-322 319 175 0
-322 -319 -175 0
323 178 -176 0
323 -178 176 0
-323 178 176 0
-323 -178 -176 0
-324 319 0
-324 176 0
-324 175 -178 0
-324 -175 178 0
324 -319 175 178 -176 0
324 -319 -175 -178 -176 0
325 322 -173 0
325 -322 173 0
-325 322 173 0
-325 -322 -173 0
326 176 -174 0
326 -176 174 0
-326 176 174 0
-326 -176 -174 0
-327 322 0
-327 174 0
-327 173 -176 0
-327 -173 176 0
327 -322 173 176 -174 0
327 -322 -173 -176 -174 0
328 325 -171 0
328 -325 171 0
-328 325 171 0
-328 -325 -171 0
329 174 -172 0
329 -174 172 0
-329 174 172 0
-329 -174 -172 0
-330 325 0
-330 172 0
-330 171 -174 0
-330 -171 174 0
330 -325 171 174 -172 0
330 -325 -171 -174 -172 0
331 328 -169 0
331 -328 169 0
-331 328 169 0
-331 -328 -169 0
332 172 -170 0
332 -172 170 0
-332 172 170 0
-332 -172 -170 0
-333 328 0
-333 170 0
-333 169 -172 0
-333 -169 172 0
333 -328 169 172 -170 0
333 -328 -169 -172 -170 0
334 331 -167 0
334 -331 167 0
-334 331 167 0
-334 -331 -167 0
335 170 -168 0
335 -170 168 0
-335 170 168 0
-335 -170 -168 0
-336 331 0
-336 168 0
-336 167 -170 0
-336 -167 170 0
336 -331 167 170 -168 0
336 -331 -167 -170 -168 0
337 334 -165 0
337 -334 165 0
-337 334 165 0
-337 -334 -165 0
338 168 -166 0
338 -168 166 0
-338 168 166 0
-338 -168 -166 0
-339 334 0
-339 166 0
-339 165 -168 0
-339 -165 168 0
339 -334 165 168 -166 0
339 -334 -165 -168 -166 0
340 337 -163 0
340 -337 163 0
-340 337 163 0
-340 -337 -163 0
341 166 -164 0
341 -166 164 0
-341 166 164 0
-341 -166 -164 0
-342 337 0
-342 164 0
-342 163 -166 0
-342 -163 166 0
342 -337 163 166 -164 0
342 -337 -163 -166 -164 0
343 340 -161 0
343 -340 161 0
-343 340 161 0
-343 -340 -161 0
344 164 -162 0
344 -164 162 0
-344 164 162 0
-344 -164 -162 0
-345 340 0
-345 162 0
-345 161 -164 0
-345 -161 164 0
345 -340 161 164 -162 0
345 -340 -161 -164 -162 0
346 343 -159 0
346 -343 159 0
-346 343 159 0
-346 -343 -159 0
347 162 -160 0
347 -162 160 0
-347 162 160 0
-347 -162 -160 0
-348 343 0
-348 160 0
-348 159 -162 0
-348 -159 162 0
348 -343 159 162 -160 0
348 -343 -159 -162 -160 0
349 346 -157 0
349 -346 157 0
-349 346 157 0
-349 -346 -157 0
350 160 -158 0
350 -160 158 0
-350 160 158 0
-350 -160 -158 0
-351 346 0
-351 158 0
-351 157 -160 0
-351 -157 160 0
351 -346 157 160 -158 0
351 -346 -157 -160 -158 0
352 349 -155 0
352 -349 155 0
-352 349 155 0
-352 -349 -155 0
353 158 -156 0
353 -158 156 0
-353 158 156 0
-353 -158 -156 0
-354 349 0
-354 156 0
-354 155 -158 0
-354 -155 158 0
354 -349 155 158 -156 0
354 -349 -155 -158 -156 0
355 352 -153 0
355 -352 153 0
-355 352 153 0
-355 -352 -153 0
356 156 -154 0
356 -156 154 0
-356 156 154 0
-356 -156 -154 0
-357 352 0
-357 154 0
-357 153 -156 0
-357 -153 156 0
357 -352 153 156 -154 0
357 -352 -153 -156 -154 0
358 355 -151 0
358 -355 151 0
-358 355 151 0
-358 -355 -151 0
359 154 -152 0
359 -154 152 0
-359 154 152 0
-359 -154 -152 0
-360 355 0
-360 152 0
-360 151 -154 0
-360 -151 154 0
360 -355 151 154 -152 0
360 -355 -151 -154 -152 0
361 358 -149 0
361 -358 149 0
-361 358 149 0
-361 -358 -149 0
362 152 -150 0
362 -152 150 0
-362 152 150 0
-362 -152 -150 0
-363 358 0
-363 150 0
-363 149 -152 0
-363 -149 152 0
363 -358 149 152 -150 0
363 -358 -149 -152 -150 0
364 361 -147 0
364 -361 147 0
-364 361 147 0
-364 -361 -147 0
365 150 -148 0
365 -150 148 0
-365 150 148 0
-365 -150 -148 0
-366 361 0
-366 148 0
-366 147 -150 0
-366 -147 150 0
366 -361 147 150 -148 0
366 -361 -147 -150 -148 0
367 364 -145 0
367 -364 145 0
-367 364 145 0
-367 -364 -145 0
368 148 -146 0
368 -148 146 0
-368 148 146 0
-368 -148 -146 0
-369 364 0
-369 146 0
-369 145 -148 0
-369 -145 148 0
369 -364 145 148 -146 0
369 -364 -145 -148 -146 0
370 367 -143 0
370 -367 143 0
-370 367 143 0
-370 -367 -143 0
371 146 -144 0
371 -146 144 0
-371 146 144 0
-371 -146 -144 0
-372 367 0
-372 144 0
-372 143 -146 0
-372 -143 146 0
372 -367 143 146 -144 0
372 -367 -143 -146 -144 0
373 370 -141 0
373 -370 141 0
-373 370 141 0
-373 -370 -141 0
374 144 -142 0
374 -144 142 0
-374 144 142 0
-374 -144 -142 0
-375 370 0
-375 142 0
-375 141 -144 0
-375 -141 144 0
375 -370 141 144 -142 0
375 -370 -141 -144 -142 0
376 373 -139 0
376 -373 139 0
-376 373 139 0
-376 -373 -139 0
377 142 -140 0
377 -142 140 0
-377 142 140 0
-377 -142 -140 0
-378 373 0
-378 140 0
-378 139 -142 0
-378 -139 142 0
378 -373 139 142 -140 0
378 -373 -139 -142 -140 0
379 376 -137 0
379 -376 137 0
-379 376 137 0
-379 -376 -137 0
380 140 -138 0
380 -140 138 0
-380 140 138 0
-380 -140 -138 0
-381 376 0
-381 138 0
-381 137 -140 0
-381 -137 140 0
381 -376 137 140 -138 0
381 -376 -137 -140 -138 0
382 379 -135 0
382 -379 135 0
-382 379 135 0
-382 -379 -135 0
383 138 -136 0
383 -138 136 0
-383 138 136 0
-383 -138 -136 0
-384 379 0
-384 136 0
-384 135 -138 0
-384 -135 138 0
384 -379 135 138 -136 0
384 -379 -135 -138 -136 0
385 382 -133 0
385 -382 133 0
-385 382 133 0
-385 -382 -133 0
386 136 -134 0
386 -136 134 0
-386 136 134 0
-386 -136 -134 0
-387 382 0
-387 134 0
-387 133 -136 0
-387 -133 136 0
387 -382 133 136 -134 0
387 -382 -133 -136 -134 0
388 385 -131 0
388 -385 131 0
-388 385 131 0
-388 -385 -131 0
389 134 -132 0
389 -134 132 0
-389 134 132 0
-389 -134 -132 0
-390 385 0
-390 132 0
-390 131 -134 0
-390 -131 134 0
390 -385 131 134 -132 0
390 -385 -131 -134 -132 0
391 388 -129 0
391 -388 129 0
-391 388 129 0
-391 -388 -129 0
392 132 -130 0
392 -132 130 0
-392 132 130 0
-392 -132 -130 0
-393 388 0
-393 130 0
-393 129 -132 0
-393 -129 132 0
393 -388 129 132 -130 0
393 -388 -129 -132 -130 0
394 391 -127 0
394 -391 127 0
-394 391 127 0
-394 -391 -127 0
395 130 -128 0
395 -130 128 0
-395 130 128 0
-395 -130 -128 0
-396 391 0
-396 128 0
-396 127 -130 0
-396 -127 130 0
396 -391 127 130 -128 0
396 -391 -127 -130 -128 0
397 394 -125 0
397 -394 125 0
-397 394 125 0
-397 -394 -125 0
398 128 -126 0
398 -128 126 0
-398 128 126 0
-398 -128 -126 0
-399 394 0
-399 126 0
-399 125 -128 0
-399 -125 128 0
399 -394 125 128 -126 0
399 -394 -125 -128 -126 0
400 397 -123 0
400 -397 123 0
-400 397 123 0
-400 -397 -123 0
401 126 -124 0
401 -126 124 0
-401 126 124 0
-401 -126 -124 0
-402 397 0
-402 124 0
-402 123 -126 0
-402 -123 126 0
402 -397 123 126 -124 0
402 -397 -123 -126 -124 0
403 400 -121 0
403 -400 121 0
-403 400 121 0
-403 -400 -121 0
404 124 -122 0
404 -124 122 0
-404 124 122 0
-404 -124 -122 0
-405 400 0
-405 122 0
-405 121 -124 0
-405 -121 124 0
405 -400 121 124 -122 0
405 -400 -121 -124 -122 0
406 403 -119 0
406 -403 119 0
-406 403 119 0
-406 -403 -119 0
407 122 -120 0
407 -122 120 0
-407 122 120 0
-407 -122 -120 0
-408 403 0
-408 120 0
-408 119 -122 0
-408 -119 122 0
408 -403 119 122 -120 0
408 -403 -119 -122 -120 0
409 406 -117 0
409 -406 117 0
-409 406 117 0
-409 -406 -117 0
410 120 -118 0
410 -120 118 0
-410 120 118 0
-410 -120 -118 0
-411 406 0
-411 118 0
-411 117 -120 0
-411 -117 120 0
411 -406 117 120 -118 0
411 -406 -117 -120 -118 0
412 409 -115 0
412 -409 115 0
-412 409 115 0
-412 -409 -115 0
413 118 -116 0
413 -118 116 0
-413 118 116 0
-413 -118 -116 0
-414 409 0
-414 116 0
-414 115 -118 0
-414 -115 118 0
414 -409 115 118 -116 0
414 -409 -115 -118 -116 0
415 412 -113 0
415 -412 113 0
-415 412 113 0
-415 -412 -113 0
416 116 -114 0
416 -116 114 0
-416 116 114 0
-416 -116 -114 0
-417 412 0
-417 114 0
-417 113 -116 0
-417 -113 116 0
417 -412 113 116 -114 0
417 -412 -113 -116 -114 0
418 415 -111 0
418 -415 111 0
-418 415 111 0
-418 -415 -111 0
419 114 -112 0
419 -114 112 0
-419 114 112 0
-419 -114 -112 0
-420 415 0
-420 112 0
-420 111 -114 0
-420 -111 114 0
420 -415 111 114 -112 0
420 -415 -111 -114 -112 0
421 418 -109 0
421 -418 109 0
-421 418 109 0
-421 -418 -109 0
422 112 -110 0
422 -112 110 0
-422 112 110 0
-422 -112 -110 0
-423 418 0
-423 110 0
-423 109 -112 0
-423 -109 112 0
423 -418 109 112 -110 0
423 -418 -109 -112 -110 0
424 421 -107 0
424 -421 107 0
-424 421 107 0
-424 -421 -107 0
425 110 -108 0
425 -110 108 0
-425 110 108 0
-425 -110 -108 0
-426 421 0
-426 108 0
-426 107 -110 0
-426 -107 110 0
426 -421 107 110 -108 0
426 -421 -107 -110 -108 0
427 424 -105 0
427 -424 105 0
-427 424 105 0
-427 -424 -105 0
428 108 -106 0
428 -108 106 0
-428 108 106 0
-428 -108 -106 0
-429 424 0
-429 106 0
-429 105 -108 0
-429 -105 108 0
429 -424 105 108 -106 0
429 -424 -105 -108 -106 0
430 427 -103 0
430 -427 103 0
-430 427 103 0
-430 -427 -103 0
431 106 -104 0
431 -106 104 0
-431 106 104 0
-431 -106 -104 0
-432 427 0
-432 104 0
-432 103 -106 0
-432 -103 106 0
432 -427 103 106 -104 0
432 -427 -103 -106 -104 0
433 430 -101 0
433 -430 101 0
-433 430 101 0
-433 -430 -101 0
434 104 -102 0
434 -104 102 0
-434 104 102 0
-434 -104 -102 0
-435 430 0
-435 102 0
-435 101 -104 0
-435 -101 104 0
435 -430 101 104 -102 0
435 -430 -101 -104 -102 0
436 433 -99 0
436 -433 99 0
-436 433 99 0
-436 -433 -99 0
437 102 -100 0
437 -102 100 0
-437 102 100 0
-437 -102 -100 0
-438 433 0
-438 100 0
-438 99 -102 0
-438 -99 102 0
438 -433 99 102 -100 0
438 -433 -99 -102 -100 0
439 436 -97 0
439 -436 97 0
-439 436 97 0
-439 -436 -97 0
440 100 -98 0
440 -100 98 0
-440 100 98 0
-440 -100 -98 0
-441 436 0
-441 98 0
-441 97 -100 0
-441 -97 100 0
441 -436 97 100 -98 0
441 -436 -97 -100 -98 0
442 439 -95 0
442 -439 95 0
-442 439 95 0
-442 -439 -95 0
443 98 -96 0
443 -98 96 0
-443 98 96 0
-443 -98 -96 0
-444 439 0
-444 96 0
-444 95 -98 0
-444 -95 98 0
444 -439 95 98 -96 0
444 -439 -95 -98 -96 0
445 442 -93 0
445 -442 93 0
-445 442 93 0
-445 -442 -93 0
446 96 -94 0
446 -96 94 0
-446 96 94 0
-446 -96 -94 0
-447 442 0
-447 94 0
-447 93 -96 0
-447 -93 96 0
447 -442 93 96 -94 0
447 -442 -93 -96 -94 0
448 445 -91 0
448 -445 91 0
-448 445 91 0
-448 -445 -91 0
449 94 -92 0
449 -94 92 0
-449 94 92 0
-449 -94 -92 0
-450 445 0
-450 92 0
-450 91 -94 0
-450 -91 94 0
450 -445 91 94 -92 0
450 -445 -91 -94 -92 0
451 448 -89 0
451 -448 89 0
-451 448 89 0
-451 -448 -89 0
452 92 -90 0
452 -92 90 0
-452 92 90 0
-452 -92 -90 0
-453 448 0
-453 90 0
-453 89 -92 0
-453 -89 92 0
453 -448 89 92 -90 0
453 -448 -89 -92 -90 0
454 451 -87 0
454 -451 87 0
-454 451 87 0
-454 -451 -87 0
455 90 -88 0
455 -90 88 0
-455 90 88 0
-455 -90 -88 0
-456 451 0
-456 88 0
-456 87 -90 0
-456 -87 90 0
456 -451 87 90 -88 0
456 -451 -87 -90 -88 0
457 454 -85 0
457 -454 85 0
-457 454 85 0
-457 -454 -85 0
458 88 -86 0
458 -88 86 0
-458 88 86 0
-458 -88 -86 0
-459 454 0
-459 86 0
-459 85 -88 0
-459 -85 88 0
459 -454 85 88 -86 0
459 -454 -85 -88 -86 0
460 457 -83 0
460 -457 83 0
-460 457 83 0
-460 -457 -83 0
461 86 -84 0
461 -86 84 0
-461 86 84 0
-461 -86 -84 0
-462 457 0
-462 84 0
-462 83 -86 0
-462 -83 86 0
462 -457 83 86 -84 0
462 -457 -83 -86 -84 0
463 460 -81 0
463 -460 81 0
-463 460 81 0
-463 -460 -81 0
464 84 -82 0
464 -84 82 0
-464 84 82 0
-464 -84 -82 0
-465 460 0
-465 82 0
-465 81 -84 0
-465 -81 84 0
465 -460 81 84 -82 0
465 -460 -81 -84 -82 0
466 463 -79 0
466 -463 79 0
-466 463 79 0
-466 -463 -79 0
467 82 -80 0
467 -82 80 0
-467 82 80 0
-467 -82 -80 0
-468 463 0
-468 80 0
-468 79 -82 0
-468 -79 82 0
468 -463 79 82 -80 0
468 -463 -79 -82 -80 0
469 466 -77 0
469 -466 77 0
-469 466 77 0
-469 -466 -77 0
470 80 -78 0
470 -80 78 0
-470 80 78 0
-470 -80 -78 0
-471 466 0
-471 78 0
-471 77 -80 0
-471 -77 80 0
471 -466 77 80 -78 0
471 -466 -77 -80 -78 0
472 469 -75 0
472 -469 75 0
-472 469 75 0
-472 -469 -75 0
473 78 -76 0
473 -78 76 0
-473 78 76 0
-473 -78 -76 0
-474 469 0
-474 76 0
-474 75 -78 0
-474 -75 78 0
474 -469 75 78 -76 0
474 -469 -75 -78 -76 0
475 472 -73 0
475 -472 73 0
-475 472 73 0
-475 -472 -73 0
476 76 -74 0
476 -76 74 0
-476 76 74 0
-476 -76 -74 0
-477 472 0
-477 74 0
-477 73 -76 0
-477 -73 76 0
477 -472 73 76 -74 0
477 -472 -73 -76 -74 0
478 475 -71 0
478 -475 71 0
-478 475 71 0
-478 -475 -71 0
479 74 -72 0
479 -74 72 0
-479 74 72 0
-479 -74 -72 0
-480 475 0
-480 72 0
-480 71 -74 0
-480 -71 74 0
480 -475 71 74 -72 0
480 -475 -71 -74 -72 0
481 478 -69 0
481 -478 69 0
-481 478 69 0
-481 -478 -69 0
482 72 -70 0
482 -72 70 0
-482 72 70 0
-482 -72 -70 0
-483 478 0
-483 70 0
-483 69 -72 0
-483 -69 72 0
483 -478 69 72 -70 0
483 -478 -69 -72 -70 0
484 481 -67 0
484 -481 67 0
-484 481 67 0
-484 -481 -67 0
485 70 -68 0
485 -70 68 0
-485 70 68 0
-485 -70 -68 0
-486 481 0
-486 68 0
-486 67 -70 0
-486 -67 70 0
486 -481 67 70 -68 0
486 -481 -67 -70 -68 0
487 484 -65 0
487 -484 65 0
-487 484 65 0
-487 -484 -65 0
488 68 -66 0
488 -68 66 0
-488 68 66 0
-488 -68 -66 0
-489 484 0
-489 66 0
-489 65 -68 0
-489 -65 68 0
489 -484 65 68 -66 0
489 -484 -65 -68 -66 0
490 487 -63 0
490 -487 63 0
-490 487 63 0
-490 -487 -63 0
491 66 -64 0
491 -66 64 0
-491 66 64 0
-491 -66 -64 0
-492 487 0
-492 64 0
-492 63 -66 0
-492 -63 66 0
492 -487 63 66 -64 0
492 -487 -63 -66 -64 0
493 490 -61 0
493 -490 61 0
-493 490 61 0
-493 -490 -61 0
494 64 -62 0
494 -64 62 0
-494 64 62 0
-494 -64 -62 0
-495 490 0
-495 62 0
-495 61 -64 0
-495 -61 64 0
495 -490 61 64 -62 0
495 -490 -61 -64 -62 0
496 493 -59 0
496 -493 59 0
-496 493 59 0
-496 -493 -59 0
497 62 -60 0
497 -62 60 0
-497 62 60 0
-497 -62 -60 0
-498 493 0
-498 60 0
-498 59 -62 0
-498 -59 62 0
498 -493 59 62 -60 0
498 -493 -59 -62 -60 0
499 496 -57 0
499 -496 57 0
-499 496 57 0
-499 -496 -57 0
500 60 -58 0
500 -60 58 0
-500 60 58 0
-500 -60 -58 0
-501 496 0
-501 58 0
-501 57 -60 0
-501 -57 60 0
501 -496 57 60 -58 0
501 -496 -57 -60 -58 0
502 499 -55 0
502 -499 55 0
-502 499 55 0
-502 -499 -55 0
503 58 -56 0
503 -58 56 0
-503 58 56 0
-503 -58 -56 0
-504 499 0
-504 56 0
-504 55 -58 0
-504 -55 58 0
504 -499 55 58 -56 0
504 -499 -55 -58 -56 0
505 502 -53 0
505 -502 53 0
-505 502 53 0
-505 -502 -53 0
506 56 -54 0
506 -56 54 0
-506 56 54 0
-506 -56 -54 0
-507 502 0
-507 54 0
-507 53 -56 0
-507 -53 56 0
507 -502 53 56 -54 0
507 -502 -53 -56 -54 0
508 505 -51 0
508 -505 51 0
-508 505 51 0
-508 -505 -51 0
509 54 -52 0
509 -54 52 0
-509 54 52 0
-509 -54 -52 0
-510 505 0
-510 52 0
-510 51 -54 0
-510 -51 54 0
510 -505 51 54 -52 0
510 -505 -51 -54 -52 0
511 508 -49 0
511 -508 49 0
-511 508 49 0
-511 -508 -49 0
512 52 -50 0
512 -52 50 0
-512 52 50 0
-512 -52 -50 0
-513 508 0
-513 50 0
-513 49 -52 0
-513 -49 52 0
513 -508 49 52 -50 0
513 -508 -49 -52 -50 0
514 511 -47 0
514 -511 47 0
-514 511 47 0
-514 -511 -47 0
515 50 -48 0
515 -50 48 0
-515 50 48 0
-515 -50 -48 0
-516 511 0
-516 48 0
-516 47 -50 0
-516 -47 50 0
516 -511 47 50 -48 0
516 -511 -47 -50 -48 0
517 514 -45 0
517 -514 45 0
-517 514 45 0
-517 -514 -45 0
518 48 -46 0
518 -48 46 0
-518 48 46 0
-518 -48 -46 0
-519 514 0
-519 46 0
-519 45 -48 0
-519 -45 48 0
519 -514 45 48 -46 0
519 -514 -45 -48 -46 0
520 517 -43 0
520 -517 43 0
-520 517 43 0
-520 -517 -43 0
521 46 -44 0
521 -46 44 0
-521 46 44 0
-521 -46 -44 0
-522 517 0
-522 44 0
-522 43 -46 0
-522 -43 46 0
522 -517 43 46 -44 0
522 -517 -43 -46 -44 0
523 520 -41 0
523 -520 41 0
-523 520 41 0
-523 -520 -41 0
524 44 -42 0
524 -44 42 0
-524 44 42 0
-524 -44 -42 0
-525 520 0
-525 42 0
-525 41 -44 0
-525 -41 44 0
525 -520 41 44 -42 0
525 -520 -41 -44 -42 0
526 523 -39 0
526 -523 39 0
-526 523 39 0
-526 -523 -39 0
527 42 -40 0
527 -42 40 0
-527 42 40 0
-527 -42 -40 0
-528 523 0
-528 40 0
-528 39 -42 0
-528 -39 42 0
528 -523 39 42 -40 0
528 -523 -39 -42 -40 0
529 526 -37 0
529 -526 37 0
-529 526 37 0
-529 -526 -37 0
530 40 -38 0
530 -40 38 0
-530 40 38 0
-530 -40 -38 0
-531 526 0
-531 38 0
-531 37 -40 0
-531 -37 40 0
531 -526 37 40 -38 0
531 -526 -37 -40 -38 0
532 529 -35 0
532 -529 35 0
-532 529 35 0
-532 -529 -35 0
533 38 -36 0
533 -38 36 0
-533 38 36 0
-533 -38 -36 0
-534 529 0
-534 36 0
-534 35 -38 0
-534 -35 38 0
534 -529 35 38 -36 0
534 -529 -35 -38 -36 0
535 532 -33 0
535 -532 33 0
-535 532 33 0
-535 -532 -33 0
536 36 -34 0
536 -36 34 0
-536 36 34 0
-536 -36 -34 0
-537 532 0
-537 34 0
-537 33 -36 0
-537 -33 36 0
537 -532 33 36 -34 0
537 -532 -33 -36 -34 0
538 535 -31 0
538 -535 31 0
-538 535 31 0
-538 -535 -31 0
539 34 -32 0
539 -34 32 0
-539 34 32 0
-539 -34 -32 0
-540 535 0
-540 32 0
-540 31 -34 0
-540 -31 34 0
540 -535 31 34 -32 0
540 -535 -31 -34 -32 0
541 538 -29 0
541 -538 29 0
-541 538 29 0
-541 -538 -29 0
542 32 -30 0
542 -32 30 0
-542 32 30 0
-542 -32 -30 0
-543 538 0
-543 30 0
-543 29 -32 0
-543 -29 32 0
543 -538 29 32 -30 0
543 -538 -29 -32 -30 0
544 541 -27 0
544 -541 27 0
-544 541 27 0
-544 -541 -27 0
545 30 -28 0
545 -30 28 0
-545 30 28 0
-545 -30 -28 0
-546 541 0
-546 28 0
-546 27 -30 0
-546 -27 30 0
546 -541 27 30 -28 0
546 -541 -27 -30 -28 0
547 544 -25 0
547 -544 25 0
-547 544 25 0
-547 -544 -25 0
548 28 -26 0
548 -28 26 0
-548 28 26 0
-548 -28 -26 0
-549 544 0
-549 26 0
-549 25 -28 0
-549 -25 28 0
549 -544 25 28 -26 0
549 -544 -25 -28 -26 0
550 547 -23 0
550 -547 23 0
-550 547 23 0
-550 -547 -23 0
551 26 -24 0
551 -26 24 0
-551 26 24 0
-551 -26 -24 0
-552 547 0
-552 24 0
-552 23 -26 0
-552 -23 26 0
552 -547 23 26 -24 0
552 -547 -23 -26 -24 0
553 550 -21 0
553 -550 21 0
-553 550 21 0
-553 -550 -21 0
554 24 -22 0
554 -24 22 0
-554 24 22 0
-554 -24 -22 0
-555 550 0
-555 22 0
-555 21 -24 0
-555 -21 24 0
555 -550 21 24 -22 0
555 -550 -21 -24 -22 0
556 553 -19 0
556 -553 19 0
-556 553 19 0
-556 -553 -19 0
557 22 -20 0
557 -22 20 0
-557 22 20 0
-557 -22 -20 0
-558 553 0
-558 20 0
-558 19 -22 0
-558 -19 22 0
558 -553 19 22 -20 0
558 -553 -19 -22 -20 0
559 556 -17 0
559 -556 17 0
-559 556 17 0
-559 -556 -17 0
560 20 -18 0
560 -20 18 0
-560 20 18 0
-560 -20 -18 0
-561 556 0
-561 18 0
-561 17 -20 0
-561 -17 20 0
561 -556 17 20 -18 0
561 -556 -17 -20 -18 0
562 559 -15 0
562 -559 15 0
-562 559 15 0
-562 -559 -15 0
563 18 -16 0
563 -18 16 0
-563 18 16 0
-563 -18 -16 0
-564 559 0
-564 16 0
-564 15 -18 0
-564 -15 18 0
564 -559 15 18 -16 0
564 -559 -15 -18 -16 0
565 562 -13 0
565 -562 13 0
-565 562 13 0
-565 -562 -13 0
566 16 -14 0
566 -16 14 0
-566 16 14 0
-566 -16 -14 0
-567 562 0
-567 14 0
-567 13 -16 0
-567 -13 16 0
567 -562 13 16 -14 0
567 -562 -13 -16 -14 0
568 565 -11 0
568 -565 11 0
-568 565 11 0
-568 -565 -11 0
569 14 -12 0
569 -14 12 0
-569 14 12 0
-569 -14 -12 0
-570 565 0
-570 12 0
-570 11 -14 0
-570 -11 14 0
570 -565 11 14 -12 0
570 -565 -11 -14 -12 0
571 568 -9 0
571 -568 9 0
-571 568 9 0
-571 -568 -9 0
572 12 -10 0
572 -12 10 0
-572 12 10 0
-572 -12 -10 0
-573 568 0
-573 10 0
-573 9 -12 0
-573 -9 12 0
573 -568 9 12 -10 0
573 -568 -9 -12 -10 0
574 571 -7 0
574 -571 7 0
-574 571 7 0
-574 -571 -7 0
575 10 -8 0
575 -10 8 0
-575 10 8 0
-575 -10 -8 0
-576 571 0
-576 8 0
-576 7 -10 0
-576 -7 10 0
576 -571 7 10 -8 0
576 -571 -7 -10 -8 0
577 574 -5 0
577 -574 5 0
-577 574 5 0
-577 -574 -5 0
578 8 -6 0
578 -8 6 0
-578 8 6 0
-578 -8 -6 0
-579 574 0
-579 6 0
-579 5 -8 0
-579 -5 8 0
579 -574 5 8 -6 0
579 -574 -5 -8 -6 0
580 577 -3 0
580 -577 3 0
-580 577 3 0
-580 -577 -3 0
581 6 -4 0
581 -6 4 0
-581 6 4 0
-581 -6 -4 0
-582 577 0
-582 4 0
-582 3 -6 0
-582 -3 6 0
582 -577 3 6 -4 0
582 -577 -3 -6 -4 0
583 580 -1 0
583 -580 1 0
-583 580 1 0
-583 -580 -1 0
584 4 -2 0
584 -4 2 0
-584 4 2 0
-584 -4 -2 0
-585 580 0
-585 2 0
-585 1 -4 0
-585 -1 4 0
585 -580 1 4 -2 0
585 -580 -1 -4 -2 0
-583 0
-580 0
-584 0
-577 0
-581 0
-574 0
-578 0
-571 0
-575 0
-568 0
-572 0
-565 0
-569 0
-562 0
-566 0
-559 0
-563 0
-556 0
-560 0
-553 0
-557 0
-550 0
-554 0
-547 0
-551 0
-544 0
-548 0
-541 0
-545 0
-538 0
-542 0
-535 0
-539 0
-532 0
-536 0
-529 0
-533 0
-526 0
-530 0
-523 0
-527 0
-520 0
-524 0
-517 0
-521 0
-514 0
-518 0
-511 0
-515 0
-508 0
-512 0
-505 0
-509 0
-502 0
-506 0
-499 0
-503 0
-496 0
-500 0
-493 0
-497 0
-490 0
-494 0
-487 0
-491 0
-484 0
-488 0
-481 0
-485 0
-478 0
-482 0
-475 0
-479 0
-472 0
-476 0
-469 0
-473 0
-466 0
-470 0
-463 0
-467 0
-460 0
-464 0
-457 0
-461 0
-454 0
-458 0
-451 0
-455 0
-448 0
-452 0
-445 0
-449 0
-442 0
-446 0
-439 0
-443 0
-436 0
-440 0
-433 0
-437 0
-430 0
-434 0
-427 0
-431 0
-424 0
-428 0
-421 0
-425 0
-418 0
-422 0
-415 0
-419 0
-412 0
-416 0
-409 0
-413 0
-406 0
-410 0
-403 0
-407 0
-400 0
-404 0
-397 0
-401 0
-394 0
-398 0
-391 0
-395 0
-388 0
-392 0
-385 0
-389 0
-382 0
-386 0
-379 0
-383 0
-376 0
-380 0
-373 0
-377 0
-370 0
-374 0
-367 0
-371 0
-364 0
-368 0
-361 0
-365 0
-358 0
-362 0
-355 0
-359 0
-352 0
-356 0
-349 0
-353 0
-346 0
-350 0
-343 0
-347 0
-340 0
-344 0
-337 0
-341 0
-334 0
-338 0
-331 0
-335 0
-328 0
-332 0
-325 0
-329 0
-322 0
-326 0
-319 0
-323 0
-316 0
-320 0
-313 0
-317 0
-310 0
-314 0
-307 0
-311 0
-304 0
-308 0
-301 0
-305 0
-298 0
-302 0
-295 0
-299 0
-292 0
-296 0
-289 0
-293 0
-286 0
-290 0
-283 0
-287 0
-280 0
-284 0
-277 0
-281 0
-274 0
-278 0
-271 0
-275 0
-268 0
-272 0
-265 0
-269 0
-262 0
-266 0
-259 0
-263 0
-256 0
-260 0
-253 0
-257 0
-250 0
-254 0
-247 0
-251 0
-244 0
-248 0
-241 0
-245 0
-235 0
-242 0
